 O Te
   1.0
     4.8207320300000003    0.0000000000000000    0.0000000000000000
     0.0000000000000000    4.8207320300000003    0.0000000000000000
     0.0000000000000000    0.0000000000000000    7.4432847799999999
 O Te
   8   4
Direct
   0.2506358100000000  0.3582442900000000  0.3063105000000000
   0.7493641900000000  0.6417557100000000  0.8063105000000000
   0.3582442900000000  0.2506358100000000  0.6936895000000001
   0.8582442900000000  0.2493641900000000  0.0563105000000000
   0.6417557100000000  0.7493641900000000  0.1936895000000000
   0.7506358100000000  0.1417557100000000  0.4436895000000000
   0.2493641900000000  0.8582442900000000  0.9436895000000000
   0.1417557100000000  0.7506358100000000  0.5563104999999999
   0.4822481000000000  0.4822481000000000  0.5000000000000000
   0.0177519000000000  0.9822481000000000  0.7500000000000000
   0.9822481000000000  0.0177519000000000  0.2500000000000000
   0.5177518999999999  0.5177518999999999  0.0000000000000000